2025-02-23 19:04:37,221 - INFO - Set parameter WLSAccessID
2025-02-23 19:04:37,221 - INFO - Set parameter WLSSecret
2025-02-23 19:04:37,221 - INFO - Set parameter LicenseID to value 2626770
2025-02-23 19:04:37,227 - INFO - Academic license 2626770 - for non-commercial use only - registered to fa___@uw.edu
2025-02-23 19:04:37,228 - INFO - Initialization complete
2025-02-23 19:04:37,911 - INFO - Variables created successfully
2025-02-23 19:04:44,825 - INFO - Constraints added successfully
2025-02-23 19:04:44,840 - INFO - Objective function set successfully
2025-02-23 19:04:44,961 - INFO - Set parameter MIPGap to value 0.1
2025-02-23 19:04:44,961 - INFO - Set parameter TimeLimit to value 3600
2025-02-23 19:04:44,961 - INFO - Set parameter MIPFocus to value 1
2025-02-23 19:04:44,961 - INFO - Set parameter Presolve to value 2
2025-02-23 19:04:44,963 - INFO - Set parameter NodefileStart to value 0.5
2025-02-23 19:04:44,963 - INFO - Set parameter NodefileDir to value "c:/path/to/fast/disk"
2025-02-23 19:04:44,963 - INFO - Set parameter Threads to value 7
2025-02-23 19:04:45,349 - INFO - Greedy initial solution generated successfully
2025-02-23 19:04:45,350 - INFO - Starting optimization - accepting solutions within 10% of optimal
2025-02-23 19:04:45,351 - INFO - Maximum possible satisfied requests: 2400
2025-02-23 19:04:45,458 - INFO - Gurobi Optimizer version 12.0.1 build v12.0.1rc0 (win64 - Windows 11.0 (26100.2))
2025-02-23 19:04:45,458 - INFO - 
2025-02-23 19:04:45,458 - INFO - CPU model: AMD Ryzen 7 2700X Eight-Core Processor, instruction set [SSE2|AVX|AVX2]
2025-02-23 19:04:45,458 - INFO - Thread count: 8 physical cores, 16 logical processors, using up to 7 threads
2025-02-23 19:04:45,460 - INFO - 
2025-02-23 19:04:45,460 - INFO - Non-default parameters:
2025-02-23 19:04:45,460 - INFO - TimeLimit  3600
2025-02-23 19:04:45,460 - INFO - MIPGap  0.1
2025-02-23 19:04:45,460 - INFO - MIPFocus  1
2025-02-23 19:04:45,460 - INFO - NodefileStart  0.5
2025-02-23 19:04:45,461 - INFO - Presolve  2
2025-02-23 19:04:45,461 - INFO - Threads  7
2025-02-23 19:04:45,461 - INFO - 
2025-02-23 19:04:45,463 - INFO - Academic license 2626770 - for non-commercial use only - registered to fa___@uw.edu
2025-02-23 19:04:45,463 - INFO - Optimize a model with 437110 rows, 162518 columns and 1186660 nonzeros
2025-02-23 19:04:45,478 - INFO - Model fingerprint: 0x5aa287e2
2025-02-23 19:04:45,478 - INFO - Variable types: 0 continuous, 162518 integer (162518 binary)
2025-02-23 19:04:45,480 - INFO - Coefficient statistics:
2025-02-23 19:04:45,480 - INFO -   Matrix range     [1e+00, 1e+00]
2025-02-23 19:04:45,482 - INFO -   Objective range  [1e+00, 1e+00]
2025-02-23 19:04:45,482 - INFO -   Bounds range     [1e+00, 1e+00]
2025-02-23 19:04:45,482 - INFO -   RHS range        [1e+00, 4e+01]
2025-02-23 19:04:45,482 - INFO - 
2025-02-23 19:04:45,491 - INFO - User MIP start did not produce a new incumbent solution
2025-02-23 19:04:45,497 - INFO - User MIP start violates constraint course_requirement_ST001_Math_1 by 1.000000000
2025-02-23 19:04:45,497 - INFO - 
2025-02-23 19:04:50,633 - INFO - Presolve removed 297 rows and 35 columns (presolve time = 5s)...
2025-02-23 19:04:55,629 - INFO - Presolve removed 297 rows and 35 columns (presolve time = 10s)...
2025-02-23 19:05:42,205 - INFO - Presolve removed 297 rows and 47 columns (presolve time = 57s)...
2025-02-23 19:06:01,857 - INFO - Presolve removed 297 rows and 47 columns (presolve time = 76s)...
2025-02-23 19:06:35,033 - INFO - Presolve removed 297 rows and 47 columns (presolve time = 109s)...
2025-02-23 19:06:56,843 - INFO - Presolve removed 297 rows and 47 columns (presolve time = 131s)...
2025-02-23 19:07:00,628 - INFO - Presolve removed 18377 rows and 47 columns (presolve time = 135s)...
2025-02-23 19:07:05,637 - INFO - Presolve removed 18423 rows and 59 columns (presolve time = 140s)...
2025-02-23 19:07:10,627 - INFO - Presolve removed 18425 rows and 59 columns (presolve time = 145s)...
2025-02-23 19:07:53,939 - INFO - Presolve removed 18425 rows and 59 columns (presolve time = 188s)...
2025-02-23 19:07:55,844 - INFO - Presolve removed 18425 rows and 59 columns (presolve time = 190s)...
2025-02-23 19:07:56,059 - INFO - Presolve removed 18425 rows and 59 columns
2025-02-23 19:07:56,059 - INFO - Presolve time: 190.43s
2025-02-23 19:07:56,431 - INFO - Presolved: 418685 rows, 162459 columns, 1511844 nonzeros
2025-02-23 19:07:56,718 - INFO - Variable types: 0 continuous, 162459 integer (162459 binary)
2025-02-23 19:07:57,986 - INFO - 
2025-02-23 19:07:57,986 - INFO - Deterministic concurrent LP optimizer: primal simplex, dual simplex, and barrier
2025-02-23 19:07:57,986 - INFO - Showing barrier log only...
2025-02-23 19:07:57,986 - INFO - 
2025-02-23 19:08:03,100 - INFO - Root relaxation presolve removed 0 rows and 0 columns (presolve time = 5s)...
2025-02-23 19:08:03,428 - INFO - Root relaxation presolve removed 1 rows and 0 columns
2025-02-23 19:08:03,438 - INFO - Root relaxation presolved: 418684 rows, 162460 columns, 1511828 nonzeros
2025-02-23 19:08:03,438 - INFO - 
2025-02-23 19:08:03,829 - INFO - Root barrier log...
2025-02-23 19:08:03,830 - INFO - 
2025-02-23 19:08:03,859 - INFO - Ordering time: 0.02s
2025-02-23 19:08:03,865 - INFO - 
2025-02-23 19:08:03,867 - INFO - Barrier statistics:
2025-02-23 19:08:03,867 - INFO -  AA' NZ     : 8.020e+04
2025-02-23 19:08:03,868 - INFO -  Factor NZ  : 5.130e+05 (roughly 8 MB of memory)
2025-02-23 19:08:03,868 - INFO -  Factor Ops : 7.004e+07 (less than 1 second per iteration)
2025-02-23 19:08:03,870 - INFO -  Threads    : 4
2025-02-23 19:08:03,888 - INFO - 
2025-02-23 19:08:03,889 - INFO -                   Objective                Residual
2025-02-23 19:08:03,889 - INFO - Iter       Primal          Dual         Primal    Dual     Compl     Time
2025-02-23 19:08:03,889 - INFO -    0   2.40000000e+03  2.41917500e+03  3.02e+01 0.00e+00  2.47e-01   198s
2025-02-23 19:08:03,898 - INFO -    1   2.40000000e+03  2.49818188e+03  1.35e+01 1.79e-02  1.03e-01   198s
2025-02-23 19:08:03,907 - INFO -    2   2.40000000e+03  2.48317265e+03  1.72e+00 1.67e-16  1.71e-02   198s
2025-02-23 19:08:03,917 - INFO -    3   2.40000000e+03  2.42868221e+03  2.47e-01 2.98e-16  3.40e-03   198s
2025-02-23 19:08:03,926 - INFO -    4   2.40000000e+03  2.40315119e+03  5.77e-15 2.01e-16  2.85e-04   198s
2025-02-23 19:08:03,939 - INFO -    5   2.40000000e+03  2.40000315e+03  1.79e-13 3.34e-17  2.85e-07   198s
2025-02-23 19:08:03,948 - INFO -    6   2.40000000e+03  2.40000000e+03  3.13e-13 3.86e-20  2.85e-10   198s
2025-02-23 19:08:03,956 - INFO -    7   2.40000000e+03  2.40000000e+03  1.19e-13 2.14e-23  2.87e-16   198s
2025-02-23 19:08:03,958 - INFO - 
2025-02-23 19:08:03,958 - INFO - Barrier solved model in 7 iterations and 198.50 seconds (136.00 work units)
2025-02-23 19:08:03,958 - INFO - Optimal objective 2.40000000e+03
2025-02-23 19:08:03,959 - INFO - 
2025-02-23 19:08:03,964 - INFO - 
2025-02-23 19:08:03,966 - INFO - Root crossover log...
2025-02-23 19:08:03,966 - INFO - 
2025-02-23 19:08:03,970 - INFO -        0 DPushes remaining with DInf 0.0000000e+00               199s
2025-02-23 19:08:03,973 - INFO - 
2025-02-23 19:08:03,974 - INFO -      702 PPushes remaining with PInf 0.0000000e+00               199s
2025-02-23 19:08:03,981 - INFO -        0 PPushes remaining with PInf 0.0000000e+00               199s
2025-02-23 19:08:03,981 - INFO - 
2025-02-23 19:08:03,982 - INFO -   Push phase complete: Pinf 0.0000000e+00, Dinf 0.0000000e+00    199s
2025-02-23 19:08:03,982 - INFO - 
2025-02-23 19:08:03,984 - INFO - 
2025-02-23 19:08:03,984 - INFO - Root simplex log...
2025-02-23 19:08:03,985 - INFO - 
2025-02-23 19:08:03,985 - INFO - Iteration    Objective       Primal Inf.    Dual Inf.      Time
2025-02-23 19:08:03,985 - INFO -      705    2.4000000e+03   0.000000e+00   0.000000e+00    199s
2025-02-23 19:08:03,994 - INFO -      705    2.4000000e+03   0.000000e+00   0.000000e+00    199s
2025-02-23 19:08:04,042 - INFO - 
2025-02-23 19:08:04,044 - INFO - Use crossover to convert LP symmetric solution to basic solution...
2025-02-23 19:08:04,409 - INFO - 
2025-02-23 19:08:04,409 - INFO - Root crossover log...
2025-02-23 19:08:04,409 - INFO - 
2025-02-23 19:08:04,489 - INFO -    11457 PPushes remaining with PInf 0.0000000e+00               199s
2025-02-23 19:08:05,492 - INFO -      806 PPushes remaining with PInf 0.0000000e+00               200s
2025-02-23 19:08:05,662 - INFO -        0 PPushes remaining with PInf 0.0000000e+00               200s
2025-02-23 19:08:05,689 - INFO - 
2025-02-23 19:08:05,689 - INFO -   Push phase complete: Pinf 0.0000000e+00, Dinf 0.0000000e+00    200s
2025-02-23 19:08:05,689 - INFO - 
2025-02-23 19:08:05,794 - INFO - 
2025-02-23 19:08:05,794 - INFO - Root simplex log...
2025-02-23 19:08:05,794 - INFO - 
2025-02-23 19:08:05,796 - INFO - Iteration    Objective       Primal Inf.    Dual Inf.      Time
2025-02-23 19:08:05,796 - INFO -    12165    2.4000000e+03   0.000000e+00   0.000000e+00    200s
2025-02-23 19:08:05,953 - INFO -    12165    2.4000000e+03   0.000000e+00   0.000000e+00    200s
2025-02-23 19:08:05,954 - INFO - Concurrent spin time: 0.26s
2025-02-23 19:08:05,954 - INFO - 
2025-02-23 19:08:05,954 - INFO - Solved with dual simplex
2025-02-23 19:08:05,979 - INFO - 
2025-02-23 19:08:05,979 - INFO - Root relaxation: objective 2.400000e+03, 14165 iterations, 7.99 seconds (4.91 work units)
2025-02-23 19:08:06,169 - INFO - 
2025-02-23 19:08:06,169 - INFO -     Nodes    |    Current Node    |     Objective Bounds      |     Work
2025-02-23 19:08:06,169 - INFO -  Expl Unexpl |  Obj  Depth IntInf | Incumbent    BestBd   Gap | It/Node Time
2025-02-23 19:08:06,169 - INFO - 
2025-02-23 19:08:06,169 - INFO - H    0     0                    2400.0000000 2400.00000  0.00%     -  200s
2025-02-23 19:08:06,174 - INFO -      0     0 2400.00000    0 7549 2400.00000 2400.00000  0.00%     -  200s
2025-02-23 19:08:06,213 - INFO - 
2025-02-23 19:08:06,214 - INFO - Explored 1 nodes (14165 simplex iterations) in 200.75 seconds (137.32 work units)
2025-02-23 19:08:06,214 - INFO - Thread count was 7 (of 16 available processors)
2025-02-23 19:08:06,214 - INFO - 
2025-02-23 19:08:06,215 - INFO - Solution count 1: 2400 
2025-02-23 19:08:06,215 - INFO - 
2025-02-23 19:08:06,215 - INFO - Optimal solution found (tolerance 1.00e-01)
2025-02-23 19:08:06,219 - INFO - Best objective 2.400000000000e+03, best bound 2.400000000000e+03, gap 0.0000%
2025-02-23 19:08:06,289 - INFO - Found solution within 10% of optimal
2025-02-23 19:08:06,290 - INFO - Satisfied requests: 2400.0 out of 2400
2025-02-23 19:08:06,290 - INFO - Satisfaction rate: 100.00%
2025-02-23 19:08:06,366 - INFO - Solution saved successfully
2025-02-23 19:08:06,366 - INFO - Warning: environment still referenced so free is deferred (Continue to use WLS)
